%chk=MnFeCO4-_c_3th.chk
%nprocshared=1
%mem=1500MB
# opt=cartesian freq b3lyp/6-31+G scf=(maxcyc=80,xqc)

Title Card Required

-1 3
 Fe                 0.85387326    0.47535211    0.00000000
 C                  1.49721773    1.38515445   -1.57583869
 C                  1.11067694   -1.33268158   -0.62447263
 C                  1.49721773    1.38515445    1.57583869
 C                 -1.03181342    0.68096961    0.35609996
 O                  1.86902417    1.91095421    2.48655915
 O                  1.25909084   -2.37759389   -0.98537252
 O                  1.86902417    1.91095421   -2.48655915
 O                 -2.12160250    0.79981206    0.56189939
 Mn                 2.53853732    3.47172019    3.70469777




