%chk=MnFeCO4-_aaaa_1th.chk
%mem=1500MB
# opt=cartesian freq b3lyp/6-31+g scf=(maxcyc=80,xqc)

Title Card Required

-1 1
 Fe                 2.07758661    3.26120571    4.06814778
 Mn                 0.85387326    0.47535211    0.00000000
 C                  1.89762466    1.95140034    2.55661456
 O                  1.49721773    1.38515445    1.57583869
 C                  1.49721773    1.38515445   -1.57583869
 C                  1.49718451   -1.34427715    0.00000000
 C                 -1.07612674    0.47537589    0.00000000
 O                  1.86897175   -2.39589087    0.00000000
 O                  1.86902417    1.91095421   -2.48655915
 O                 -2.19152674    0.47540014   -0.00000042















