%chk=MnFeCO4-_bbb1_3th.chk
%mem=1500MB
# opt=cartesian freq ub3lyp/6-31+g nosymm scf=qc 

Title Card Required

-1 3
 Mn                 0.30996000    0.35663200    0.19592500
 Fe                -1.78624100    0.88294400    1.22831400
 C                 -0.00736800   -1.20596300   -0.67197300
 C                  0.53247500   -0.49654000    1.85013800
 C                  2.09546900    0.38097400   -0.23699100
 C                 -0.36835100    1.28657400   -1.28129900
 O                  3.25878700    0.34515700   -0.51992500
 O                  0.71714900   -1.13021300    2.85337200
 O                 -0.27684800   -2.21376700   -1.26038200
 O                 -0.81194500    1.79281900   -2.26656700








