%chk=MnFeCO4-_ccc_3th.chk
%nprocshared=1
%mem=1500MB
# opt=cartesian freq b3lyp/6-31+g scf=(maxcyc=80,xqc)

Title Card Required

-1 3
 C                  0.00000000    0.00000000    1.93000000
 C                  1.91283586    0.00000000   -0.25682483
 C                 -0.67418326    1.61060116   -0.82239944
 O                  3.01831623    0.00000000   -0.40525094
 O                  0.00000000    0.00000000    3.04540001
 O                 -1.06382109    2.54141103   -1.29768097
 Mn                 0.00000000    0.00000000    0.00000000
 Fe                -3.88781439   -2.92255223   -1.05053863
 C                 -1.26474767   -1.09732597   -0.59200088
 O                 -2.22982990   -1.93465489   -1.04373488











