%chk=MnFeCO4-_bbb2_3th.chk
%mem=1500MB
# opt=cartesian freq ub3lyp/6-31+g nosymm scf=qc 

Title Card Required

-1 3
 Mn                 0.15141400    0.18709100    0.16407300
 Fe                -1.43643800    1.47434600    1.37998700
 C                  0.03419900   -1.39391900   -0.73741700
 C                  0.45699900   -0.64443700    1.81520300
 C                  1.92211500    0.42458100   -0.20665400
 C                 -0.42998300    1.20227600   -1.30016100
 O                  3.08057000    0.59666900   -0.45003900
 O                  0.69745100   -1.22413600    2.83104300
 O                 -0.05447200   -2.43018400   -1.32917600
 O                 -0.75876800    1.80633000   -2.27624700





