%chk=MnFeCO4-_bbb1_1th.chk
%mem=1500MB
# opt=cartesian freq ub3lyp/6-31+g nosymm scf=qc 

Title Card Required

-1 1
 Mn                 0.51274300    0.02634200   -0.04803700
 Fe                -1.74972800    0.21686400    0.20808200
 C                 -0.22138200   -1.58477700   -0.62989200
 C                  0.50808100   -0.11198500    1.80233100
 C                  2.29575000    0.02543800   -0.68405900
 C                 -0.42841500    1.60566700   -0.61407300
 O                  3.40830400   -0.00730000   -1.11137100
 O                  0.56187900   -0.19885200    2.99786100
 O                 -0.55312600   -2.68808700   -0.97989700
 O                 -0.67101600    2.71530800   -1.05033300





