%chk=MnFeCO4-_aa_1th.chk
%mem=150MB
# opt=cartesian freq b3lyp/6-31+G

Title Card Required

-1 1
 Fe                 0.00000000    0.00000000    0.00000000
 C                  0.00000000    0.00000000    1.93000000
 C                  1.81962165    0.00000000   -0.64333276
 C                 -0.90981075    1.57583842   -0.64333326
 O                  2.87123098   -0.00000000   -1.01513243
 O                  0.00000000   -0.00000000    3.04540001
 O                 -1.43562400    2.48655589   -1.01512792
 Mn                -2.91908174   -3.83741468   -1.60046598
 C                 -1.47606089   -2.55661399   -1.04373488
 O                 -0.90981014   -1.57583833   -0.64333428







