%chk=MnFeCO4-_bbb_1th.chk
%mem=1500MB
# opt=cartesian freq b3lyp/6-31+g scf=qc nosymm

Title Card Required

-1 1
 Mn                 0.41829400    0.00087600   -0.00104400
 Fe                -2.00920000   -0.00024200    0.04938500
 C                 -0.17459100   -1.53058300   -0.63438600
 C                  0.62821500   -0.03641700    1.74160600
 C                  2.06455100    0.01225200   -0.58199100
 C                 -0.17478000    1.55515600   -0.57710000
 O                  3.17785800    0.01961900   -0.98806700
 O                  0.78261200   -0.05609600    2.92457800
 O                 -0.52463200   -2.60187700   -1.06243200
 O                 -0.52523900    2.63592800   -0.97993800











